p cnf 924 2683
1 0
2 0
3 0
4 0
5 0
6 0
-7 0
8 0
9 0
10 0
11 0
12 0
13 0
14 0
15 0
16 0
17 0
18 0
19 0
20 0
21 0
22 0
23 0
24 0
25 0
26 0
27 0
28 0
29 0
30 0
31 0
32 0
33 0
34 0
35 0
36 0
37 0
38 0
39 0
40 0
41 0
42 0
43 0
44 0
45 0
46 0
47 0
48 0
49 0
50 0
51 -52 0
-53 51 0
-54 51 0
-55 51 0
51 -56 0
51 -57 0
51 -58 0
51 -59 0
51 -60 0
-61 51 0
-62 51 0
63 0
1 -51 0
-1 51 0
-53 64 0
-54 64 0
-55 64 0
-56 64 0
-57 64 0
-58 64 0
-59 64 0
-60 64 0
-61 64 0
-62 64 0
65 0
66 -64 0
-66 64 0
-54 67 0
-55 67 0
-56 67 0
-57 67 0
-58 67 0
-59 67 0
-60 67 0
-61 67 0
-62 67 0
68 0
69 -67 0
-69 67 0
-55 70 0
-56 70 0
-57 70 0
-58 70 0
-59 70 0
-60 70 0
-61 70 0
-62 70 0
71 0
72 -70 0
-72 70 0
-56 73 0
-57 73 0
-58 73 0
-59 73 0
-60 73 0
-61 73 0
-62 73 0
74 0
75 -73 0
-75 73 0
-57 76 0
-58 76 0
-59 76 0
-60 76 0
-61 76 0
-62 76 0
57 58 59 60 61 62 -76 0
77 -76 0
-77 76 0
78 -76 0
-78 76 0
79 -76 0
-79 76 0
80 -76 0
-80 76 0
81 -76 0
-81 76 0
-62 82 0
-57 82 0
-58 82 0
-59 82 0
-60 82 0
-61 82 0
62 57 58 59 60 61 -82 0
83 -82 0
-83 82 0
-84 85 0
-86 85 0
85 -87 0
-88 85 0
85 -89 0
85 -90 0
-91 85 0
-92 85 0
93 0
2 -85 0
-2 85 0
-86 94 0
-87 94 0
-88 94 0
-89 94 0
-90 94 0
-91 94 0
-92 94 0
95 0
96 -94 0
-96 94 0
-87 97 0
-88 97 0
-89 97 0
-90 97 0
-91 97 0
-92 97 0
98 0
99 -97 0
-99 97 0
-88 100 0
-89 100 0
-90 100 0
-91 100 0
-92 100 0
88 89 90 91 92 -100 0
101 -100 0
-101 100 0
102 -100 0
-102 100 0
103 -100 0
-103 100 0
104 -100 0
-104 100 0
105 -100 0
-105 100 0
106 -107 0
-108 106 0
106 -109 0
106 -110 0
106 -111 0
106 -112 0
-113 106 0
-114 106 0
-115 106 0
106 -116 0
-117 106 0
118 0
3 -106 0
-3 106 0
-108 119 0
-109 119 0
-110 119 0
-111 119 0
-112 119 0
-113 119 0
-114 119 0
-115 119 0
-116 119 0
-117 119 0
120 0
121 -119 0
-121 119 0
-109 122 0
-110 122 0
-111 122 0
-112 122 0
-113 122 0
-114 122 0
-115 122 0
-116 122 0
-117 122 0
123 0
124 -122 0
-124 122 0
-110 125 0
-111 125 0
-112 125 0
-113 125 0
-114 125 0
-115 125 0
-116 125 0
-117 125 0
126 0
127 -125 0
-127 125 0
-111 128 0
-112 128 0
-113 128 0
-114 128 0
-115 128 0
-116 128 0
-117 128 0
129 0
130 -128 0
-130 128 0
-112 131 0
-113 131 0
-114 131 0
-115 131 0
-116 131 0
-117 131 0
132 0
133 -131 0
-133 131 0
134 -131 0
-134 131 0
135 -131 0
-135 131 0
136 -131 0
-136 131 0
137 -131 0
-137 131 0
138 -131 0
-138 131 0
-111 139 0
-112 139 0
-113 139 0
-114 139 0
-115 139 0
-116 139 0
-117 139 0
139 -140 0
139 -141 0
139 -142 0
-143 139 0
144 0
4 -139 0
-4 139 0
-111 145 0
-112 145 0
-113 145 0
-114 145 0
-115 145 0
-116 145 0
-117 145 0
-141 145 0
-142 145 0
-143 145 0
146 0
147 -145 0
-147 145 0
-111 148 0
-112 148 0
-113 148 0
-114 148 0
-115 148 0
-116 148 0
-117 148 0
-142 148 0
-143 148 0
149 0
150 -148 0
-150 148 0
-111 151 0
-112 151 0
-113 151 0
-114 151 0
-115 151 0
-116 151 0
-117 151 0
-143 151 0
152 0
153 -151 0
-153 151 0
-88 154 0
-89 154 0
-90 154 0
-91 154 0
-92 154 0
154 -155 0
154 -156 0
-157 154 0
154 -158 0
159 0
5 -154 0
-5 154 0
-88 160 0
-89 160 0
-90 160 0
-91 160 0
-92 160 0
-156 160 0
-157 160 0
-158 160 0
161 0
162 -160 0
-162 160 0
-88 163 0
-89 163 0
-90 163 0
-91 163 0
-92 163 0
-157 163 0
-158 163 0
164 0
165 -163 0
-165 163 0
-88 166 0
-89 166 0
-90 166 0
-91 166 0
-92 166 0
-158 166 0
167 0
168 -166 0
-168 166 0
-169 170 0
170 -171 0
170 -172 0
-173 170 0
169 171 172 173 -170 0
6 -170 0
-6 170 0
-171 174 0
-172 174 0
-173 174 0
171 172 173 -174 0
175 -174 0
-175 174 0
-172 176 0
-173 176 0
172 173 -176 0
177 -176 0
-177 176 0
7 -173 0
-7 173 0
-88 178 0
-89 178 0
-90 178 0
-91 178 0
-92 178 0
178 -179 0
-180 178 0
178 -181 0
-182 178 0
183 0
8 -178 0
-8 178 0
-88 184 0
-89 184 0
-90 184 0
-91 184 0
-92 184 0
-180 184 0
-181 184 0
-182 184 0
185 0
186 -184 0
-186 184 0
-88 187 0
-89 187 0
-90 187 0
-91 187 0
-92 187 0
-181 187 0
-182 187 0
188 0
189 -187 0
-189 187 0
-88 190 0
-89 190 0
-90 190 0
-91 190 0
-92 190 0
-182 190 0
191 0
192 -190 0
-192 190 0
-193 194 0
-195 194 0
-196 194 0
194 -197 0
-198 194 0
-199 194 0
194 -200 0
-201 194 0
194 -202 0
194 -203 0
204 0
9 -194 0
-9 194 0
-195 205 0
-196 205 0
-197 205 0
-198 205 0
-199 205 0
-200 205 0
-201 205 0
-202 205 0
-203 205 0
206 0
207 -205 0
-207 205 0
-196 208 0
-197 208 0
-198 208 0
-199 208 0
-200 208 0
-201 208 0
-202 208 0
-203 208 0
209 0
210 -208 0
-210 208 0
-197 211 0
-198 211 0
-199 211 0
-200 211 0
-201 211 0
-202 211 0
-203 211 0
212 0
213 -211 0
-213 211 0
-198 214 0
-199 214 0
-200 214 0
-201 214 0
-202 214 0
-203 214 0
215 0
216 -214 0
-216 214 0
-199 217 0
-200 217 0
-201 217 0
-202 217 0
-203 217 0
199 200 201 202 203 -217 0
218 -217 0
-218 217 0
-200 219 0
-201 219 0
-202 219 0
-203 219 0
200 201 202 203 -219 0
220 -219 0
-220 219 0
221 -219 0
-221 219 0
222 -219 0
-222 219 0
223 -219 0
-223 219 0
224 -225 0
224 -226 0
-227 224 0
-228 224 0
-229 224 0
224 -230 0
-231 224 0
-232 224 0
-233 224 0
224 -234 0
224 -235 0
236 0
10 -224 0
-10 224 0
-226 237 0
-227 237 0
-228 237 0
-229 237 0
-230 237 0
-231 237 0
-232 237 0
-233 237 0
-234 237 0
-235 237 0
238 0
239 -237 0
-239 237 0
-227 240 0
-228 240 0
-229 240 0
-230 240 0
-231 240 0
-232 240 0
-233 240 0
-234 240 0
-235 240 0
241 0
242 -240 0
-242 240 0
-228 243 0
-229 243 0
-230 243 0
-231 243 0
-232 243 0
-233 243 0
-234 243 0
-235 243 0
244 0
245 -243 0
-245 243 0
-229 246 0
-230 246 0
-231 246 0
-232 246 0
-233 246 0
-234 246 0
-235 246 0
247 0
248 -246 0
-248 246 0
-230 249 0
-231 249 0
-232 249 0
-233 249 0
-234 249 0
-235 249 0
250 0
251 -249 0
-251 249 0
252 -249 0
-252 249 0
253 -249 0
-253 249 0
254 -249 0
-254 249 0
255 -249 0
-255 249 0
256 -249 0
-256 249 0
-200 257 0
-201 257 0
-202 257 0
-203 257 0
257 -258 0
-259 257 0
-260 257 0
257 -261 0
262 0
11 -257 0
-11 257 0
-200 263 0
-201 263 0
-202 263 0
-203 263 0
-259 263 0
-260 263 0
-261 263 0
264 0
265 -263 0
-265 263 0
-200 266 0
-201 266 0
-202 266 0
-203 266 0
-260 266 0
-261 266 0
267 0
268 -266 0
-268 266 0
-200 269 0
-201 269 0
-202 269 0
-203 269 0
-261 269 0
200 201 202 203 261 -269 0
270 -269 0
-270 269 0
-271 272 0
-273 272 0
272 -274 0
-275 272 0
272 -276 0
272 -277 0
278 0
12 -272 0
-12 272 0
-273 279 0
-274 279 0
-275 279 0
-276 279 0
-277 279 0
273 274 275 276 277 -279 0
280 -279 0
-280 279 0
281 -279 0
-281 279 0
282 -279 0
-282 279 0
283 -279 0
-283 279 0
284 -279 0
-284 279 0
285 -286 0
285 -287 0
285 -288 0
-289 285 0
285 -290 0
-291 285 0
-292 285 0
293 0
13 -285 0
-13 285 0
-287 294 0
-288 294 0
-289 294 0
-290 294 0
-291 294 0
-292 294 0
295 0
296 -294 0
-296 294 0
297 -294 0
-297 294 0
298 -294 0
-298 294 0
299 -294 0
-299 294 0
300 -294 0
-300 294 0
301 -294 0
-301 294 0
302 -303 0
302 -304 0
302 -305 0
302 -306 0
-307 302 0
-308 302 0
-309 302 0
-310 302 0
302 -311 0
312 0
14 -302 0
-14 302 0
-304 313 0
-305 313 0
-306 313 0
-307 313 0
-308 313 0
-309 313 0
-310 313 0
-311 313 0
314 0
315 -313 0
-315 313 0
-305 316 0
-306 316 0
-307 316 0
-308 316 0
-309 316 0
-310 316 0
-311 316 0
317 0
318 -316 0
-318 316 0
-306 319 0
-307 319 0
-308 319 0
-309 319 0
-310 319 0
-311 319 0
320 0
321 -319 0
-321 319 0
-307 322 0
-308 322 0
-309 322 0
-310 322 0
-311 322 0
307 308 309 310 311 -322 0
323 -322 0
-323 322 0
-308 324 0
-309 324 0
-310 324 0
-311 324 0
308 309 310 311 -324 0
325 -324 0
-325 324 0
326 -324 0
-326 324 0
15 -324 0
-15 324 0
327 -324 0
-327 324 0
-271 328 0
-273 328 0
-274 328 0
-275 328 0
-276 328 0
-277 328 0
328 -329 0
-330 328 0
-331 328 0
328 -332 0
333 0
16 -328 0
-16 328 0
-271 334 0
-273 334 0
-274 334 0
-275 334 0
-276 334 0
-277 334 0
-330 334 0
-331 334 0
-332 334 0
335 0
336 -334 0
-336 334 0
-271 337 0
-273 337 0
-274 337 0
-275 337 0
-276 337 0
-277 337 0
-331 337 0
-332 337 0
338 0
339 -337 0
-339 337 0
-271 340 0
-273 340 0
-274 340 0
-275 340 0
-276 340 0
-277 340 0
-332 340 0
341 0
342 -340 0
-342 340 0
343 -344 0
343 -345 0
343 -346 0
-347 343 0
-348 343 0
-349 343 0
-350 343 0
343 -351 0
343 -352 0
-353 343 0
-354 343 0
343 -355 0
356 0
17 -343 0
-17 343 0
-345 357 0
-346 357 0
-347 357 0
-348 357 0
-349 357 0
-350 357 0
-351 357 0
-352 357 0
-353 357 0
-354 357 0
-355 357 0
358 0
359 -357 0
-359 357 0
-346 360 0
-347 360 0
-348 360 0
-349 360 0
-350 360 0
-351 360 0
-352 360 0
-353 360 0
-354 360 0
-355 360 0
361 0
362 -360 0
-362 360 0
-347 363 0
-348 363 0
-349 363 0
-350 363 0
-351 363 0
-352 363 0
-353 363 0
-354 363 0
-355 363 0
364 0
365 -363 0
-365 363 0
-348 366 0
-349 366 0
-350 366 0
-351 366 0
-352 366 0
-353 366 0
-354 366 0
-355 366 0
367 0
368 -366 0
-368 366 0
-349 369 0
-350 369 0
-351 369 0
-352 369 0
-353 369 0
-354 369 0
-355 369 0
370 0
371 -369 0
-371 369 0
-350 372 0
-351 372 0
-352 372 0
-353 372 0
-354 372 0
-355 372 0
373 0
374 -372 0
-374 372 0
375 -372 0
-375 372 0
376 -372 0
-376 372 0
377 -372 0
-377 372 0
378 -372 0
-378 372 0
379 -372 0
-379 372 0
-380 381 0
-382 381 0
-383 381 0
-384 381 0
381 -385 0
-386 381 0
-387 381 0
381 -388 0
389 0
18 -381 0
-18 381 0
-382 390 0
-383 390 0
-384 390 0
-385 390 0
-386 390 0
-387 390 0
-388 390 0
391 0
392 -390 0
-392 390 0
-383 393 0
-384 393 0
-385 393 0
-386 393 0
-387 393 0
-388 393 0
394 0
395 -393 0
-395 393 0
-384 396 0
-385 396 0
-386 396 0
-387 396 0
-388 396 0
384 385 386 387 388 -396 0
397 -396 0
-397 396 0
-385 398 0
-386 398 0
-387 398 0
-388 398 0
385 386 387 388 -398 0
399 -398 0
-399 398 0
19 -398 0
-19 398 0
400 -398 0
-400 398 0
401 -398 0
-401 398 0
-402 403 0
-404 403 0
403 -405 0
403 -406 0
403 -407 0
403 -408 0
403 -409 0
403 -410 0
-411 403 0
412 0
20 -403 0
-20 403 0
-404 413 0
-405 413 0
-406 413 0
-407 413 0
-408 413 0
-409 413 0
-410 413 0
-411 413 0
414 0
415 -413 0
-415 413 0
-405 416 0
-406 416 0
-407 416 0
-408 416 0
-409 416 0
-410 416 0
-411 416 0
417 0
418 -416 0
-418 416 0
-406 419 0
-407 419 0
-408 419 0
-409 419 0
-410 419 0
-411 419 0
420 0
421 -419 0
-421 419 0
422 -419 0
-422 419 0
423 -419 0
-423 419 0
424 -419 0
-424 419 0
425 -419 0
-425 419 0
426 -419 0
-426 419 0
-112 427 0
-113 427 0
-114 427 0
-115 427 0
-116 427 0
-117 427 0
-428 427 0
427 -429 0
427 -430 0
-431 427 0
-432 427 0
433 0
21 -427 0
-21 427 0
-112 434 0
-113 434 0
-114 434 0
-115 434 0
-116 434 0
-117 434 0
-429 434 0
-430 434 0
-431 434 0
-432 434 0
435 0
436 -434 0
-436 434 0
-112 437 0
-113 437 0
-114 437 0
-115 437 0
-116 437 0
-117 437 0
-430 437 0
-431 437 0
-432 437 0
438 0
439 -437 0
-439 437 0
-112 440 0
-113 440 0
-114 440 0
-115 440 0
-116 440 0
-117 440 0
-431 440 0
-432 440 0
441 0
442 -440 0
-442 440 0
-112 443 0
-113 443 0
-114 443 0
-115 443 0
-116 443 0
-117 443 0
-432 443 0
444 0
445 -443 0
-445 443 0
-385 446 0
-386 446 0
-387 446 0
-388 446 0
-447 446 0
-448 446 0
-449 446 0
-450 446 0
446 -451 0
-452 446 0
453 0
22 -446 0
-22 446 0
-385 454 0
-386 454 0
-387 454 0
-388 454 0
-448 454 0
-449 454 0
-450 454 0
-451 454 0
-452 454 0
455 0
456 -454 0
-456 454 0
-385 457 0
-386 457 0
-387 457 0
-388 457 0
-449 457 0
-450 457 0
-451 457 0
-452 457 0
458 0
459 -457 0
-459 457 0
-385 460 0
-386 460 0
-387 460 0
-388 460 0
-450 460 0
-451 460 0
-452 460 0
461 0
462 -460 0
-462 460 0
-385 463 0
-386 463 0
-387 463 0
-388 463 0
-451 463 0
-452 463 0
464 0
465 -463 0
-465 463 0
-385 466 0
-386 466 0
-387 466 0
-388 466 0
-452 466 0
385 386 387 388 452 -466 0
467 -466 0
-467 466 0
-308 468 0
-309 468 0
-310 468 0
-311 468 0
468 -469 0
468 -470 0
468 -471 0
-472 468 0
-473 468 0
468 -474 0
-475 468 0
-476 468 0
468 -477 0
478 0
23 -468 0
-23 468 0
-308 479 0
-309 479 0
-310 479 0
-311 479 0
-470 479 0
-471 479 0
-472 479 0
-473 479 0
-474 479 0
-475 479 0
-476 479 0
-477 479 0
480 0
481 -479 0
-481 479 0
-308 482 0
-309 482 0
-310 482 0
-311 482 0
-471 482 0
-472 482 0
-473 482 0
-474 482 0
-475 482 0
-476 482 0
-477 482 0
483 0
484 -482 0
-484 482 0
-308 485 0
-309 485 0
-310 485 0
-311 485 0
-472 485 0
-473 485 0
-474 485 0
-475 485 0
-476 485 0
-477 485 0
486 0
487 -485 0
-487 485 0
-308 488 0
-309 488 0
-310 488 0
-311 488 0
-473 488 0
-474 488 0
-475 488 0
-476 488 0
-477 488 0
489 0
490 -488 0
-490 488 0
-308 491 0
-309 491 0
-310 491 0
-311 491 0
-474 491 0
-475 491 0
-476 491 0
-477 491 0
492 0
493 -491 0
-493 491 0
-308 494 0
-309 494 0
-310 494 0
-311 494 0
-475 494 0
-476 494 0
-477 494 0
495 0
496 -494 0
-496 494 0
-308 497 0
-309 497 0
-310 497 0
-311 497 0
-476 497 0
-477 497 0
498 0
499 -497 0
-499 497 0
-308 500 0
-309 500 0
-310 500 0
-311 500 0
-477 500 0
308 309 310 311 477 -500 0
501 -500 0
-501 500 0
-385 502 0
-386 502 0
-387 502 0
-388 502 0
-451 502 0
-452 502 0
502 -503 0
-504 502 0
502 -505 0
506 0
24 -502 0
-24 502 0
-385 507 0
-386 507 0
-387 507 0
-388 507 0
-451 507 0
-452 507 0
-504 507 0
-505 507 0
508 0
509 -507 0
-509 507 0
-385 510 0
-386 510 0
-387 510 0
-388 510 0
-451 510 0
-452 510 0
-505 510 0
511 0
512 -510 0
-512 510 0
-513 514 0
-515 514 0
514 -516 0
-517 514 0
514 -518 0
514 -519 0
-520 514 0
-521 514 0
-522 514 0
514 -523 0
514 -524 0
-525 514 0
526 0
25 -514 0
-25 514 0
-515 527 0
-516 527 0
-517 527 0
-518 527 0
-519 527 0
-520 527 0
-521 527 0
-522 527 0
-523 527 0
-524 527 0
-525 527 0
528 0
529 -527 0
-529 527 0
-516 530 0
-517 530 0
-518 530 0
-519 530 0
-520 530 0
-521 530 0
-522 530 0
-523 530 0
-524 530 0
-525 530 0
531 0
532 -530 0
-532 530 0
-517 533 0
-518 533 0
-519 533 0
-520 533 0
-521 533 0
-522 533 0
-523 533 0
-524 533 0
-525 533 0
534 0
535 -533 0
-535 533 0
-518 536 0
-519 536 0
-520 536 0
-521 536 0
-522 536 0
-523 536 0
-524 536 0
-525 536 0
537 0
538 -536 0
-538 536 0
-519 539 0
-520 539 0
-521 539 0
-522 539 0
-523 539 0
-524 539 0
-525 539 0
540 0
541 -539 0
-541 539 0
-520 542 0
-521 542 0
-522 542 0
-523 542 0
-524 542 0
-525 542 0
543 0
544 -542 0
-544 542 0
545 -542 0
-545 542 0
26 -542 0
-26 542 0
546 -542 0
-546 542 0
547 -542 0
-547 542 0
548 -542 0
-548 542 0
-273 549 0
-274 549 0
-275 549 0
-276 549 0
-277 549 0
549 -550 0
549 -551 0
549 -552 0
553 0
27 -549 0
-27 549 0
-273 554 0
-274 554 0
-275 554 0
-276 554 0
-277 554 0
-551 554 0
-552 554 0
555 0
556 -554 0
-556 554 0
-273 557 0
-274 557 0
-275 557 0
-276 557 0
-277 557 0
-552 557 0
558 0
559 -557 0
-559 557 0
-384 560 0
-385 560 0
-386 560 0
-387 560 0
-388 560 0
560 -561 0
562 0
28 -560 0
-28 560 0
-385 563 0
-386 563 0
-387 563 0
-388 563 0
563 -564 0
-565 563 0
563 -566 0
563 -567 0
563 -568 0
563 -569 0
563 -570 0
563 -571 0
563 -572 0
563 -573 0
-574 563 0
575 0
29 -563 0
-29 563 0
-385 576 0
-386 576 0
-387 576 0
-388 576 0
-565 576 0
-566 576 0
-567 576 0
-568 576 0
-569 576 0
-570 576 0
-571 576 0
-572 576 0
-573 576 0
-574 576 0
577 0
578 -576 0
-578 576 0
-385 579 0
-386 579 0
-387 579 0
-388 579 0
-566 579 0
-567 579 0
-568 579 0
-569 579 0
-570 579 0
-571 579 0
-572 579 0
-573 579 0
-574 579 0
580 0
581 -579 0
-581 579 0
-385 582 0
-386 582 0
-387 582 0
-388 582 0
-567 582 0
-568 582 0
-569 582 0
-570 582 0
-571 582 0
-572 582 0
-573 582 0
-574 582 0
583 0
584 -582 0
-584 582 0
-385 585 0
-386 585 0
-387 585 0
-388 585 0
-568 585 0
-569 585 0
-570 585 0
-571 585 0
-572 585 0
-573 585 0
-574 585 0
586 0
587 -585 0
-587 585 0
-385 588 0
-386 588 0
-387 588 0
-388 588 0
-569 588 0
-570 588 0
-571 588 0
-572 588 0
-573 588 0
-574 588 0
589 0
590 -588 0
-590 588 0
-385 591 0
-386 591 0
-387 591 0
-388 591 0
-570 591 0
-571 591 0
-572 591 0
-573 591 0
-574 591 0
592 0
593 -591 0
-593 591 0
-385 594 0
-386 594 0
-387 594 0
-388 594 0
-571 594 0
-572 594 0
-573 594 0
-574 594 0
595 0
596 -594 0
-596 594 0
-385 597 0
-386 597 0
-387 597 0
-388 597 0
-572 597 0
-573 597 0
-574 597 0
598 0
599 -597 0
-599 597 0
-385 600 0
-386 600 0
-387 600 0
-388 600 0
-573 600 0
-574 600 0
601 0
602 -600 0
-602 600 0
-385 603 0
-386 603 0
-387 603 0
-388 603 0
-574 603 0
385 386 387 388 574 -603 0
604 -603 0
-604 603 0
-406 605 0
-407 605 0
-408 605 0
-409 605 0
-410 605 0
-411 605 0
-606 605 0
-607 605 0
605 -608 0
-609 605 0
-610 605 0
611 0
30 -605 0
-30 605 0
-406 612 0
-407 612 0
-408 612 0
-409 612 0
-410 612 0
-411 612 0
-607 612 0
-608 612 0
-609 612 0
-610 612 0
613 0
614 -612 0
-614 612 0
-406 615 0
-407 615 0
-408 615 0
-409 615 0
-410 615 0
-411 615 0
-608 615 0
-609 615 0
-610 615 0
616 0
617 -615 0
-617 615 0
-406 618 0
-407 618 0
-408 618 0
-409 618 0
-410 618 0
-411 618 0
-609 618 0
-610 618 0
619 0
620 -618 0
-620 618 0
-406 621 0
-407 621 0
-408 621 0
-409 621 0
-410 621 0
-411 621 0
-610 621 0
622 0
623 -621 0
-623 621 0
-200 624 0
-201 624 0
-202 624 0
-203 624 0
-258 624 0
-259 624 0
-260 624 0
-261 624 0
-625 624 0
624 -626 0
624 -627 0
-628 624 0
-629 624 0
-630 624 0
-631 624 0
-632 624 0
633 0
31 -624 0
-31 624 0
-200 634 0
-201 634 0
-202 634 0
-203 634 0
-258 634 0
-259 634 0
-260 634 0
-261 634 0
-626 634 0
-627 634 0
-628 634 0
-629 634 0
-630 634 0
-631 634 0
-632 634 0
635 0
636 -634 0
-636 634 0
-200 637 0
-201 637 0
-202 637 0
-203 637 0
-258 637 0
-259 637 0
-260 637 0
-261 637 0
-627 637 0
-628 637 0
-629 637 0
-630 637 0
-631 637 0
-632 637 0
638 0
639 -637 0
-639 637 0
-200 640 0
-201 640 0
-202 640 0
-203 640 0
-258 640 0
-259 640 0
-260 640 0
-261 640 0
-628 640 0
-629 640 0
-630 640 0
-631 640 0
-632 640 0
641 0
642 -640 0
-642 640 0
-200 643 0
-201 643 0
-202 643 0
-203 643 0
-258 643 0
-259 643 0
-260 643 0
-261 643 0
-629 643 0
-630 643 0
-631 643 0
-632 643 0
644 0
645 -643 0
-645 643 0
-200 646 0
-201 646 0
-202 646 0
-203 646 0
-258 646 0
-259 646 0
-260 646 0
-261 646 0
-630 646 0
-631 646 0
-632 646 0
647 0
648 -646 0
-648 646 0
-200 649 0
-201 649 0
-202 649 0
-203 649 0
-258 649 0
-259 649 0
-260 649 0
-261 649 0
-631 649 0
-632 649 0
650 0
651 -649 0
-651 649 0
-200 652 0
-201 652 0
-202 652 0
-203 652 0
-258 652 0
-259 652 0
-260 652 0
-261 652 0
-632 652 0
653 0
654 -652 0
-654 652 0
-308 655 0
-309 655 0
-310 655 0
-311 655 0
655 -656 0
655 -657 0
655 -658 0
655 -659 0
660 0
32 -655 0
-32 655 0
-308 661 0
-309 661 0
-310 661 0
-311 661 0
-657 661 0
-658 661 0
-659 661 0
662 0
663 -661 0
-663 661 0
-308 664 0
-309 664 0
-310 664 0
-311 664 0
-658 664 0
-659 664 0
665 0
666 -664 0
-666 664 0
-308 667 0
-309 667 0
-310 667 0
-311 667 0
-659 667 0
308 309 310 311 659 -667 0
668 -667 0
-668 667 0
-385 669 0
-386 669 0
-387 669 0
-388 669 0
-571 669 0
-572 669 0
-573 669 0
-574 669 0
669 -670 0
669 -671 0
-672 669 0
673 0
33 -669 0
-33 669 0
-385 674 0
-386 674 0
-387 674 0
-388 674 0
-571 674 0
-572 674 0
-573 674 0
-574 674 0
-671 674 0
-672 674 0
675 0
676 -674 0
-676 674 0
-385 677 0
-386 677 0
-387 677 0
-388 677 0
-571 677 0
-572 677 0
-573 677 0
-574 677 0
-672 677 0
678 0
679 -677 0
-679 677 0
-680 681 0
-682 681 0
-683 681 0
-684 681 0
681 -685 0
-686 681 0
681 -687 0
-688 681 0
-689 681 0
-690 681 0
691 0
34 -681 0
-34 681 0
-682 692 0
-683 692 0
-684 692 0
-685 692 0
-686 692 0
-687 692 0
-688 692 0
-689 692 0
-690 692 0
693 0
694 -692 0
-694 692 0
-683 695 0
-684 695 0
-685 695 0
-686 695 0
-687 695 0
-688 695 0
-689 695 0
-690 695 0
696 0
697 -695 0
-697 695 0
-684 698 0
-685 698 0
-686 698 0
-687 698 0
-688 698 0
-689 698 0
-690 698 0
699 0
700 -698 0
-700 698 0
-685 701 0
-686 701 0
-687 701 0
-688 701 0
-689 701 0
-690 701 0
702 0
703 -701 0
-703 701 0
-686 704 0
-687 704 0
-688 704 0
-689 704 0
-690 704 0
686 687 688 689 690 -704 0
705 -704 0
-705 704 0
706 -704 0
-706 704 0
707 -704 0
-707 704 0
708 -704 0
-708 704 0
709 -704 0
-709 704 0
710 -711 0
710 -712 0
710 -713 0
-714 710 0
-715 710 0
-307 710 0
-308 710 0
-309 710 0
-310 710 0
-311 710 0
716 0
35 -710 0
-35 710 0
-712 717 0
-713 717 0
-714 717 0
-715 717 0
-307 717 0
-308 717 0
-309 717 0
-310 717 0
-311 717 0
718 0
719 -717 0
-719 717 0
-713 720 0
-714 720 0
-715 720 0
-307 720 0
-308 720 0
-309 720 0
-310 720 0
-311 720 0
721 0
722 -720 0
-722 720 0
-714 723 0
-715 723 0
-307 723 0
-308 723 0
-309 723 0
-310 723 0
-311 723 0
724 0
725 -723 0
-725 723 0
-715 726 0
-307 726 0
-308 726 0
-309 726 0
-310 726 0
-311 726 0
727 0
728 -726 0
-728 726 0
-729 730 0
730 -731 0
730 -732 0
-733 730 0
730 -734 0
730 -735 0
-736 730 0
-737 730 0
730 -738 0
739 0
36 -730 0
-36 730 0
-731 740 0
-732 740 0
-733 740 0
-734 740 0
-735 740 0
-736 740 0
-737 740 0
-738 740 0
741 0
742 -740 0
-742 740 0
-732 743 0
-733 743 0
-734 743 0
-735 743 0
-736 743 0
-737 743 0
-738 743 0
744 0
745 -743 0
-745 743 0
-733 746 0
-734 746 0
-735 746 0
-736 746 0
-737 746 0
-738 746 0
747 0
748 -746 0
-748 746 0
-734 749 0
-735 749 0
-736 749 0
-737 749 0
-738 749 0
734 735 736 737 738 -749 0
750 -749 0
-750 749 0
751 -749 0
-751 749 0
752 -749 0
-752 749 0
753 -749 0
-753 749 0
754 -749 0
-754 749 0
-112 755 0
-113 755 0
-114 755 0
-115 755 0
-116 755 0
-117 755 0
-431 755 0
-432 755 0
755 -756 0
-757 755 0
758 0
37 -755 0
-37 755 0
-112 759 0
-113 759 0
-114 759 0
-115 759 0
-116 759 0
-117 759 0
-431 759 0
-432 759 0
-757 759 0
760 0
761 -759 0
-761 759 0
-385 762 0
-386 762 0
-387 762 0
-388 762 0
-452 762 0
-763 762 0
762 -764 0
-765 762 0
766 0
38 -762 0
-38 762 0
-385 767 0
-386 767 0
-387 767 0
-388 767 0
-452 767 0
-764 767 0
-765 767 0
768 0
769 -767 0
-769 767 0
-385 770 0
-386 770 0
-387 770 0
-388 770 0
-452 770 0
-765 770 0
771 0
772 -770 0
-772 770 0
-308 773 0
-309 773 0
-310 773 0
-311 773 0
773 -774 0
-775 773 0
-776 773 0
773 -777 0
773 -778 0
773 -779 0
780 0
39 -773 0
-39 773 0
-308 781 0
-309 781 0
-310 781 0
-311 781 0
-775 781 0
-776 781 0
-777 781 0
-778 781 0
-779 781 0
782 0
783 -781 0
-783 781 0
-308 784 0
-309 784 0
-310 784 0
-311 784 0
-776 784 0
-777 784 0
-778 784 0
-779 784 0
785 0
786 -784 0
-786 784 0
-308 787 0
-309 787 0
-310 787 0
-311 787 0
-777 787 0
-778 787 0
-779 787 0
788 0
789 -787 0
-789 787 0
-308 790 0
-309 790 0
-310 790 0
-311 790 0
-778 790 0
-779 790 0
791 0
792 -790 0
-792 790 0
-308 793 0
-309 793 0
-310 793 0
-311 793 0
-779 793 0
308 309 310 311 779 -793 0
794 -793 0
-794 793 0
795 -796 0
795 -797 0
-798 795 0
796 797 798 -795 0
40 -795 0
-40 795 0
-797 799 0
-798 799 0
797 798 -799 0
800 -799 0
-800 799 0
801 -799 0
-801 799 0
-385 802 0
-386 802 0
-387 802 0
-388 802 0
-803 802 0
802 -804 0
805 0
41 -802 0
-41 802 0
-385 806 0
-386 806 0
-387 806 0
-388 806 0
-804 806 0
385 386 387 388 804 -806 0
807 -806 0
-807 806 0
-385 808 0
-386 808 0
-387 808 0
-388 808 0
808 -809 0
-810 808 0
808 -811 0
-812 808 0
808 -813 0
814 0
42 -808 0
-42 808 0
-385 815 0
-386 815 0
-387 815 0
-388 815 0
-810 815 0
-811 815 0
-812 815 0
-813 815 0
816 0
817 -815 0
-817 815 0
-385 818 0
-386 818 0
-387 818 0
-388 818 0
-811 818 0
-812 818 0
-813 818 0
819 0
820 -818 0
-820 818 0
-385 821 0
-386 821 0
-387 821 0
-388 821 0
-812 821 0
-813 821 0
822 0
823 -821 0
-823 821 0
-385 824 0
-386 824 0
-387 824 0
-388 824 0
-813 824 0
385 386 387 388 813 -824 0
825 -824 0
-825 824 0
-307 826 0
-308 826 0
-309 826 0
-310 826 0
-311 826 0
-715 826 0
826 -827 0
826 -828 0
829 0
43 -826 0
-43 826 0
-307 830 0
-308 830 0
-309 830 0
-310 830 0
-311 830 0
-715 830 0
-828 830 0
831 0
832 -830 0
-832 830 0
-385 833 0
-386 833 0
-387 833 0
-388 833 0
-572 833 0
-573 833 0
-574 833 0
-834 833 0
835 0
44 -833 0
-44 833 0
-385 836 0
-386 836 0
-387 836 0
-388 836 0
-572 836 0
-573 836 0
-574 836 0
-834 836 0
-837 836 0
836 -838 0
839 0
45 -836 0
-45 836 0
-385 840 0
-386 840 0
-387 840 0
-388 840 0
-572 840 0
-573 840 0
-574 840 0
-834 840 0
-838 840 0
841 0
842 -840 0
-842 840 0
843 -844 0
843 -845 0
843 -846 0
-847 843 0
-848 843 0
-849 843 0
843 -850 0
851 0
46 -843 0
-46 843 0
-845 852 0
-846 852 0
-847 852 0
-848 852 0
-849 852 0
-850 852 0
853 0
854 -852 0
-854 852 0
-846 855 0
-847 855 0
-848 855 0
-849 855 0
-850 855 0
846 847 848 849 850 -855 0
856 -855 0
-856 855 0
-847 857 0
-848 857 0
-849 857 0
-850 857 0
847 848 849 850 -857 0
858 -857 0
-858 857 0
-848 859 0
-849 859 0
-850 859 0
848 849 850 -859 0
860 -859 0
-860 859 0
861 -859 0
-861 859 0
862 -859 0
-862 859 0
-112 863 0
-113 863 0
-114 863 0
-115 863 0
-116 863 0
-117 863 0
-864 863 0
-865 863 0
-866 863 0
863 -867 0
868 0
47 -863 0
-47 863 0
-112 869 0
-113 869 0
-114 869 0
-115 869 0
-116 869 0
-117 869 0
-865 869 0
-866 869 0
-867 869 0
870 0
871 -869 0
-871 869 0
-112 872 0
-113 872 0
-114 872 0
-115 872 0
-116 872 0
-117 872 0
-866 872 0
-867 872 0
873 0
874 -872 0
-874 872 0
-112 875 0
-113 875 0
-114 875 0
-115 875 0
-116 875 0
-117 875 0
-867 875 0
876 0
877 -875 0
-877 875 0
-732 878 0
-733 878 0
-734 878 0
-735 878 0
-736 878 0
-737 878 0
-738 878 0
878 -879 0
-880 878 0
881 0
48 -878 0
-48 878 0
-732 882 0
-733 882 0
-734 882 0
-735 882 0
-736 882 0
-737 882 0
-738 882 0
-880 882 0
883 0
884 -882 0
-884 882 0
885 -886 0
-887 885 0
-888 885 0
-889 885 0
-172 885 0
-173 885 0
890 0
49 -885 0
-49 885 0
-887 891 0
-888 891 0
-889 891 0
-172 891 0
-173 891 0
887 888 889 172 173 -891 0
892 -891 0
-892 891 0
-888 893 0
-889 893 0
-172 893 0
-173 893 0
888 889 172 173 -893 0
894 -893 0
-894 893 0
-889 895 0
-172 895 0
-173 895 0
889 172 173 -895 0
896 -895 0
-896 895 0
-734 897 0
-735 897 0
-736 897 0
-737 897 0
-738 897 0
897 -898 0
897 -899 0
-900 897 0
-901 897 0
897 -902 0
903 0
50 -897 0
-50 897 0
-734 904 0
-735 904 0
-736 904 0
-737 904 0
-738 904 0
-899 904 0
-900 904 0
-901 904 0
-902 904 0
905 0
906 -904 0
-906 904 0
-734 907 0
-735 907 0
-736 907 0
-737 907 0
-738 907 0
-900 907 0
-901 907 0
-902 907 0
908 0
909 -907 0
-909 907 0
-734 910 0
-735 910 0
-736 910 0
-737 910 0
-738 910 0
-901 910 0
-902 910 0
911 0
912 -910 0
-912 910 0
-734 913 0
-735 913 0
-736 913 0
-737 913 0
-738 913 0
-902 913 0
914 0
915 -913 0
-915 913 0
52 -916 0
-916 -53 0
-916 -54 0
-916 -55 0
56 -916 0
57 -916 0
58 -916 0
59 -916 0
60 -916 0
-916 -61 0
-916 -62 0
-916 -84 0
-916 -86 0
87 -916 0
-916 -88 0
89 -916 0
90 -916 0
-916 -91 0
-916 -92 0
107 -916 0
-916 -108 0
109 -916 0
110 -916 0
111 -916 0
112 -916 0
-916 -113 0
-916 -114 0
-916 -115 0
116 -916 0
-916 -117 0
140 -916 0
141 -916 0
142 -916 0
-916 -143 0
155 -916 0
156 -916 0
-916 -157 0
158 -916 0
-916 -169 0
171 -916 0
172 -916 0
-916 -173 0
179 -916 0
-916 -180 0
181 -916 0
-916 -182 0
-916 -193 0
-916 -195 0
-916 -196 0
197 -916 0
-916 -198 0
-916 -199 0
200 -916 0
-916 -201 0
202 -916 0
203 -916 0
225 -916 0
226 -916 0
-916 -227 0
-916 -228 0
-916 -229 0
230 -916 0
-916 -231 0
-916 -232 0
-916 -233 0
234 -916 0
235 -916 0
258 -916 0
-916 -259 0
-916 -260 0
261 -916 0
-916 -271 0
-916 -273 0
274 -916 0
-916 -275 0
276 -916 0
277 -916 0
286 -916 0
287 -916 0
288 -916 0
-916 -289 0
290 -916 0
-916 -291 0
-916 -292 0
303 -916 0
304 -916 0
305 -916 0
306 -916 0
-916 -307 0
-916 -308 0
-916 -309 0
-916 -310 0
311 -916 0
329 -916 0
-916 -330 0
-916 -331 0
332 -916 0
344 -916 0
345 -916 0
346 -916 0
-916 -347 0
-916 -348 0
-916 -349 0
-916 -350 0
351 -916 0
352 -916 0
-916 -353 0
-916 -354 0
355 -916 0
-916 -380 0
-916 -382 0
-916 -383 0
-916 -384 0
385 -916 0
-916 -386 0
-916 -387 0
388 -916 0
-916 -402 0
-916 -404 0
405 -916 0
406 -916 0
407 -916 0
408 -916 0
409 -916 0
410 -916 0
-916 -411 0
-916 -428 0
429 -916 0
430 -916 0
-916 -431 0
-916 -432 0
-916 -447 0
-916 -448 0
-916 -449 0
-916 -450 0
451 -916 0
-916 -452 0
469 -916 0
470 -916 0
471 -916 0
-916 -472 0
-916 -473 0
474 -916 0
-916 -475 0
-916 -476 0
477 -916 0
503 -916 0
-916 -504 0
505 -916 0
-916 -513 0
-916 -515 0
516 -916 0
-916 -517 0
518 -916 0
519 -916 0
-916 -520 0
-916 -521 0
-916 -522 0
523 -916 0
524 -916 0
-916 -525 0
550 -916 0
551 -916 0
552 -916 0
561 -916 0
564 -916 0
-916 -565 0
566 -916 0
567 -916 0
568 -916 0
569 -916 0
570 -916 0
571 -916 0
572 -916 0
573 -916 0
-916 -574 0
-916 -606 0
-916 -607 0
608 -916 0
-916 -609 0
-916 -610 0
-916 -625 0
626 -916 0
627 -916 0
-916 -628 0
-916 -629 0
-916 -630 0
-916 -631 0
-916 -632 0
656 -916 0
657 -916 0
658 -916 0
659 -916 0
670 -916 0
671 -916 0
-916 -672 0
-916 -680 0
-916 -682 0
-916 -683 0
-916 -684 0
685 -916 0
-916 -686 0
687 -916 0
-916 -688 0
-916 -689 0
-916 -690 0
711 -916 0
712 -916 0
713 -916 0
-916 -714 0
-916 -715 0
-916 -729 0
731 -916 0
732 -916 0
-916 -733 0
734 -916 0
735 -916 0
-916 -736 0
-916 -737 0
738 -916 0
756 -916 0
-916 -757 0
-916 -763 0
764 -916 0
-916 -765 0
774 -916 0
-916 -775 0
-916 -776 0
777 -916 0
778 -916 0
779 -916 0
796 -916 0
797 -916 0
-916 -798 0
-916 -803 0
804 -916 0
809 -916 0
-916 -810 0
811 -916 0
-916 -812 0
813 -916 0
827 -916 0
828 -916 0
-916 -834 0
-916 -837 0
838 -916 0
844 -916 0
845 -916 0
846 -916 0
-916 -847 0
-916 -848 0
-916 -849 0
850 -916 0
-916 -864 0
-916 -865 0
-916 -866 0
867 -916 0
879 -916 0
-916 -880 0
886 -916 0
-916 -887 0
-916 -888 0
-916 -889 0
898 -916 0
899 -916 0
-916 -900 0
-916 -901 0
902 -916 0
916 0
-917 0
-918 0
-919 0
-920 0
-921 0
-922 0
-923 0
-924 0
